31 54 36 34 26 45 15 73 
22 24 2 27 55 7 4 57 17 
62 74 72 32 33 40 16 12 9 42 
67 63 75 30 1 6 66 69 35 37 39 53 28 60 18 19 44 46 71 70 13 25 11 41 
5 20 61 29 64 68 65 49 38 3 56 58 59 23 14 51 50 52 47 43 10 8 48 21 

